1001110000110111101111100001111100001000010000111101111100001000010111110111110000100001011011011111000010000101011010000100001010110111110000100001010110100001000010011011111000010000101011010000100001010110100001000011010000111110000111110000100001110001101111011111101101111011111000010000111101000010011010000111101000110100001101111100001000010000100011010000100110100001111010000100110100001000010011010001101000010011010000100001111010000110100001010110100001000011111000011111000010000000111011100